32      4       
19      18      17      11      
0       0       0       0       0       2       2       3       
8       7       4       6       6       3       6       5       4       
3       2       18      16      1       3       7       6       5       
9       16      1       4       6       3       13      9       7       
6       1       13      12      9       7       23      19      15      13      12      11      9       
3       15      7       11      5       5       24      20      19      14      8       
1       13      8       4       5       11      24      23      22      21      19      18      15      14      12      11      10      
4       10      14      5       4       10      23      22      21      17      16      15      13      12      11      10      
7       8       10      4       11      8       24      21      20      18      17      16      14      10      
6       10      7       16      4       5       31      28      27      26      25      
5       12      9       9       1       5       31      28      27      26      25      
10      17      12      8       3       5       31      28      27      26      25      
9       17      3       13      4       5       31      28      27      26      25      
1       11      5       5       11      4       31      28      27      26      
10      8       7       13      1       4       28      27      26      25      
3       6       12      17      6       4       31      28      26      25      
4       2       11      7       3       4       28      27      26      25      
3       17      11      15      9       4       31      28      26      25      
6       12      9       2       3       4       31      30      27      26      
8       14      15      10      1       4       31      30      27      26      
8       4       5       4       1       3       27      26      25      
6       12      6       7       11      3       27      26      25      
2       13      2       6       2       2       28      26      
9       15      1       1       11      2       27      25      
4       6       3       5       11      2       30      29      
5       7       15      13      4       1       29      
4       7       11      5       1       1       29      
1       5       13      7       8       1       30      
10      5       18      16      11      1       32      
1       8       9       1       7       1       32      
10      5       11      13      5       1       32      
0       0       0       0       0       0       
